proyfinal/src/viki/013/experimentInOfficeAgust.take6.output/b977917e-c1fe-4109-9b1a-ff55742edfe7.als.out
Reading from standard input... Use '--help' for help.
============================[ Problem Statistics ]=============================
|                                                                             |
|  Number of variables:         87638                                         |
|  Number of clauses:          161767                                         |
|  Parse time:                   0.04 s                                       |
|                                                                             |
============================[ Search Statistics ]==============================
| Conflicts |          ORIGINAL         |          LEARNT          | Progress |
|           |    Vars  Clauses Literals |    Limit  Clauses Lit/Cl |          |
===============================================================================
|       100 |   62169   104428   260985 |    38290      100     11 | 29.062 % |
|       250 |   43895   104412   260941 |    42119      237     12 | 49.913 % |
|       475 |   43894    51069   130418 |    46331      458     17 | 49.914 % |
|       812 |   43894    51069   130418 |    50964      795     20 | 49.914 % |
|      1318 |   43845    50957   130142 |    56060     1016     20 | 49.970 % |
|      2077 |   43837    50916   130023 |    61666     1655     20 | 49.979 % |
|      3216 |   43837    50916   130023 |    67833     2794     23 | 49.979 % |
===============================================================================
restarts              : 22
conflicts             : 4138           (12737 /sec)
decisions             : 14034          (0.00 % random) (43196 /sec)
propagations          : 4533160        (13952778 /sec)
conflict literals     : 96686          (33.68 % deleted)
Memory used           : 22.98 MB
CPU time              : 0.324893 s

UNSATISFIABLE
